sol/ETP_Problem07.sol
check_feasible()=True
penality()=18.886999645766917
timeslot_of_exam=[14, 16, 13, 1, 12, 18, 18, 9, 4, 5, 7, 6, 2, 10, 14, 1, 4, 8, 3, 12, 16, 11, 15, 17, 18, 18, 5, 8, 13, 6, 1, 9, 7, 14, 11, 5, 2, 18, 5, 7, 14, 3, 18, 4, 9, 8, 6, 7, 2, 11, 3, 17, 10, 9, 1, 17, 13, 4, 15, 13, 18, 14, 15, 5, 6, 6, 18, 16, 10, 12, 7, 17, 18, 2, 12, 8, 16, 13, 17, 4, 10]
exams_at_timeslot=[[4, 16, 31, 55], [13, 37, 49, 74], [19, 42, 51], [9, 17, 44, 58, 80], [10, 27, 36, 39, 64], [12, 30, 47, 65, 66], [11, 33, 40, 48, 71], [18, 28, 46, 76], [8, 32, 45, 54], [14, 53, 69, 81], [22, 35, 50], [5, 20, 70, 75], [3, 29, 57, 60, 78], [1, 15, 34, 41, 62], [23, 59, 63], [2, 21, 68, 77], [24, 52, 56, 72, 79], [6, 7, 25, 26, 38, 43, 61, 67, 73]]